
        $ From http://www.csplib.org/Problems/prob009/data/helmut.pdf
        $ Problem number 160
        $ Sequence length : 25
        language ESSENCE' 1.0
        letting sizemaster be 534
        letting sizes be sequence(11,13,15,17,18,27,38,44,49,52,60,61,68,81,87,94,107,135,149,153,159,171,174,189,210)
        